x low 7.00
p edge 8 28
n 61 1.00
n 60 1.00
n 59 1.00
n 58 1.00
n 57 1.00
n 56 1.00
n 55 1.00
n 52 1.00
e 60 61
e 59 61
e 59 60
e 58 61
e 58 60
e 58 59
e 57 61
e 57 60
e 57 59
e 57 58
e 56 60
e 56 59
e 56 58
e 56 57
e 55 60
e 55 59
e 55 58
e 55 57
e 55 56
e 52 60
e 52 59
e 52 57
e 52 56
e 52 55
e 61 56
e 61 55
e 61 52
e 58 52
